n_machines = 3;
n_resources = 4;
n_jobs = 40;
horizon = 2182;
LB = 727;
n_jobs_per_resource = [10, 10, 10, 10];
duration = [72, 81, 73, 97, 16, 41, 36, 16, 66, 74, 23, 93, 53, 41, 64, 88, 52, 62, 35, 40, 32, 78, 63, 30, 25, 21, 81, 67, 17, 97, 21, 81, 90, 55, 24, 22, 67, 56, 83, 49]